c 
c MolecularSimulation 0.9.3
c Simulation written: Jan 13 2012 -- 15:17:57
c Test: Distribution
c Input: ./data/testCNF/SWEEP_R1_K3_N20_M8_S002.cnf
c 
s SATISFIABLE
v 1 2 3 -4 10 17 -18 0
c algorithmTime:  0
c solutionMemory: 2530
c mixCount:       21
c extractCount:   0
c appendCount:    6715
c splitCount:     21
c spliceCount:    2409
c purifyCount:    7
c 
